NAME : M-n151-k12.733127.tour
COMMENT : Length = 733127
COMMENT : Found by LKH [Keld Helsgaun] Wed May  9 11:41:29 2018
TYPE : TOUR
DIMENSION : 162
TOUR_SECTION
1
28
128
32
89
149
63
12
108
20
124
152
148
7
97
105
100
60
94
86
62
114
18
160
139
13
110
151
81
69
122
30
25
135
55
131
56
26
162
133
70
2
102
71
31
123
52
21
129
132
33
91
64
127
109
11
159
112
51
103
34
82
121
10
104
72
67
153
95
96
118
98
93
99
38
101
92
17
142
87
157
113
14
138
88
145
43
143
15
120
45
141
39
158
147
53
107
8
83
49
125
48
37
144
50
65
156
59
41
22
74
73
75
76
134
23
42
146
116
3
58
16
44
154
90
19
84
61
119
6
85
46
126
115
9
47
155
29
77
117
78
4
80
130
79
35
136
36
137
66
161
54
106
27
150
111
5
140
40
57
24
68
-1
EOF
